51 6
13 17 17 15 13 10
1 0 0 0 0 0 0 3 2 3 4
1 6 8 0 9 0 0 2 5 6
6 9 6 1 0 0 10 3 6 7 8
3 0 4 8 1 4 0 2 5 8
10 0 2 0 6 0 0 3 9 10 12
4 0 8 7 0 4 9 1 12
5 0 0 8 0 4 0 2 11 12
6 6 0 2 0 0 0 1 12
8 0 9 0 4 0 7 3 14 15 16
1 1 0 0 2 6 0 3 13 14 15
5 0 0 7 8 0 0 1 16
4 0 10 4 4 0 9 2 13 16
7 0 1 0 2 7 0 2 18 20
4 0 0 0 5 9 0 3 18 19 20
10 1 0 9 8 1 0 3 17 19 20
9 0 9 5 4 8 5 1 20
6 1 0 2 0 3 4 2 21 22
4 1 0 4 0 0 7 2 21 24
6 0 5 3 0 0 0 1 22
7 0 0 2 0 2 0 1 23
5 0 5 0 3 0 0 3 25 26 27
8 10 0 0 7 0 0 1 26
8 0 0 2 10 0 0 4 25 26 27 28
3 6 0 6 0 0 0 1 27
8 3 0 0 6 0 0 2 31 32
7 0 9 0 0 0 0 2 29 31
1 4 0 10 0 0 9 4 29 30 31 32
1 0 0 8 9 0 0 1 29
5 5 7 9 0 10 0 4 33 34 35 36
1 9 0 8 0 8 0 1 34
11 7 0 5 3 10 0 3 33 34 35
5 0 7 0 7 0 0 1 33
7 10 1 0 4 4 0 3 37 39 40
1 0 9 8 0 0 1 1 38
1 0 0 7 6 5 0 2 38 39
11 9 0 0 0 7 0 3 38 39 40
6 10 2 0 7 0 0 3 41 43 44
9 8 7 5 0 0 0 2 42 44
8 0 7 4 0 0 0 3 41 42 43
5 0 9 8 7 0 0 4 41 42 43 44
7 0 5 0 0 4 6 2 47 48
6 0 0 0 6 3 7 3 45 47 48
1 8 5 0 8 3 0 2 45 48
8 3 6 7 6 10 0 3 46 47 48
5 0 0 7 0 7 0 2 49 50
9 0 10 0 0 0 0 1 50
10 0 0 0 4 0 6 1 49
8 0 0 1 0 0 4 1 49
10 0 5 3 0 6 0 1 51
2 8 4 0 0 0 0 1 51
0 0 0 0 0 0 0 0
